33D32945 STP File, STP Format Version 1.0

SECTION Comments
Name "shell_n11_d2_s1"
Problem "Euclidean Steiner Tree Problem"
Remark "Generated with STPGenerator. 2 dimensions."
END

SECTION Graph
Nodes 11
END

SECTION Coordinates
DD 0 0.9550310910 -0.2965056748
DD 1 0.6882141246 0.7255076283
DD 2 -0.5234357171 0.8520651678
DD 3 -0.9717527442 0.2360012798
DD 4 -0.1727550925 0.9849648105
DD 5 -0.9951247102 0.0986245970
DD 6 0.5297214457 0.8481716748
DD 7 -0.9582303240 0.2859976333
DD 8 -0.7662753965 0.6425122697
DD 9 -0.9608081421 -0.2772142026
DD 10 0.0381083287 0.9992736138
END
